NAME: instance_862
TYPE: TSP
DIMENSION: 20
EDGE_WEIGHT_TYPE: EUC_2D
NODE_COORD_SECTION
0 67.08 98.00
1 21.74 50.46
2 33.91 61.85
3 99.62 21.76
4 28.38 94.88
5 83.45 1.83
6 9.49 64.23
7 20.35 58.25
8 15.40 45.19
9 69.88 2.68
10 43.07 7.98
11 32.07 49.30
12 45.82 58.18
13 96.48 84.88
14 65.58 5.05
15 77.12 36.84
16 58.46 50.13
17 84.33 82.74
18 42.48 39.37
19 48.49 71.49
EOF
